[VALIDATOR STDOUT]
Checking plan: /home/jfan5/Safety-gen/runs/benchmark/optic/ferry_20260205_113042/ferry/optic_results/ferry-l16-c09-s16001.plan
Plan executed successfully - checking goal
Plan valid
Final value: 40 

Successful plans:
Value: 40
 /home/jfan5/Safety-gen/runs/benchmark/optic/ferry_20260205_113042/ferry/optic_results/ferry-l16-c09-s16001.plan 40
